% seed = 8727886

mint = 69;
% maxt = 253;

nActs = 42;
dur = [0,4,5,5,5,9,4,10,5,9,2,10,10,1,9,7,5,8,9,10,8,5,10,10,8,7,8,10,8,9,1,6,2,1,10,9,4,1,5,1,3,0];

nSkills = 4;
sreq = [| 0,0,0,0,
	| 3,5,4,0,
	| 0,4,7,3,
	| 1,2,3,0,
	| 4,7,0,1,
	| 0,2,3,4,
	| 4,3,5,0,
	| 5,0,5,7,
	| 0,7,4,3,
	| 4,7,2,0,
	| 2,3,6,0,
	| 3,0,2,4,
	| 3,7,0,3,
	| 7,4,5,0,
	| 6,0,6,6,
	| 6,3,1,0,
	| 0,4,3,3,
	| 0,5,2,5,
	| 1,7,7,0,
	| 3,0,3,4,
	| 3,0,5,4,
	| 0,2,6,5,
	| 5,3,0,4,
	| 2,6,0,5,
	| 0,3,3,7,
	| 2,0,4,6,
	| 2,2,0,4,
	| 6,4,0,6,
	| 4,6,3,0,
	| 0,1,4,7,
	| 2,2,0,4,
	| 5,5,4,0,
	| 0,4,4,5,
	| 0,3,7,2,
	| 2,2,0,3,
	| 5,3,2,0,
	| 0,3,6,3,
	| 6,1,0,6,
	| 2,2,0,3,
	| 7,0,5,5,
	| 0,4,4,2,
	| 0,0,0,0, |];

nResources = 38;
mastery = [| true,true,true,false,
	| false,true,true,false,
	| true,false,false,false,
	| true,true,false,true,
	| true,true,false,false,
	| true,false,true,true,
	| true,false,false,true,
	| false,true,true,true,
	| true,false,false,true,
	| false,true,true,false,
	| false,false,false,true,
	| true,true,false,false,
	| true,false,false,false,
	| false,true,false,false,
	| false,true,false,false,
	| true,false,true,true,
	| true,false,false,false,
	| false,true,true,true,
	| true,false,true,false,
	| true,true,false,true,
	| true,false,false,false,
	| false,true,false,false,
	| false,false,true,false,
	| true,false,true,true,
	| false,false,true,false,
	| true,false,true,true,
	| true,false,false,false,
	| true,false,false,false,
	| true,true,true,false,
	| true,false,true,false,
	| true,false,false,false,
	| true,false,false,false,
	| false,false,true,true,
	| false,false,false,true,
	| false,true,true,false,
	| true,false,false,false,
	| false,true,false,false,
	| true,false,true,true, |];

nPrecs = 85;
pred = [1,1,1,2,2,2,3,3,3,4,4,4,5,5,5,6,7,7,8,8,8,9,9,10,10,10,11,11,11,12,13,13,14,14,14,15,15,15,16,16,16,17,17,17,18,18,18,19,19,19,20,20,21,21,21,22,22,23,23,24,24,24,25,26,26,26,27,27,28,28,28,29,30,30,31,32,33,34,35,36,37,38,39,40,41];
succ = [2,3,4,11,5,8,20,21,30,17,10,6,39,7,24,14,20,32,9,18,12,22,23,18,28,22,27,13,24,15,20,28,24,38,16,25,26,29,25,18,28,21,29,23,33,26,19,30,31,32,34,23,41,38,32,33,29,33,40,25,36,37,31,27,37,39,41,31,34,38,30,35,35,40,35,34,37,36,36,40,41,39,42,42,42];

nUnrels = 409;
unpred = [2,2,2,2,2,2,2,2,3,3,3,3,3,3,3,3,3,3,3,3,3,3,3,3,3,3,3,3,3,3,3,3,4,4,4,4,4,4,4,4,4,5,5,5,5,5,5,5,5,5,5,5,5,5,5,5,5,5,5,5,5,5,6,6,6,6,6,6,6,6,6,6,6,6,6,6,7,7,7,7,7,7,7,7,7,7,7,7,7,7,7,7,7,7,7,7,7,7,7,7,7,8,8,8,8,8,8,8,8,8,8,8,9,9,9,9,9,9,9,9,9,9,9,9,9,9,9,9,9,9,9,9,9,9,9,10,10,10,10,10,10,10,10,10,10,10,10,11,11,11,11,11,11,11,11,11,11,11,11,12,12,12,12,12,12,12,12,12,12,12,12,12,12,12,12,12,13,13,13,13,13,13,13,13,13,13,13,13,13,13,13,14,14,14,14,14,14,14,15,15,15,15,15,15,15,15,15,15,15,15,15,15,15,16,16,16,16,16,16,16,17,17,17,17,17,17,17,17,17,17,17,18,18,18,18,18,18,18,18,18,19,19,19,19,19,19,19,19,19,19,19,19,19,19,19,20,20,20,20,20,20,20,20,20,20,20,20,20,20,21,21,21,21,21,21,21,21,21,21,21,21,21,22,22,22,22,22,22,22,22,22,22,22,22,23,23,23,23,23,23,23,23,23,23,23,23,23,23,24,24,24,24,24,24,24,24,24,24,25,25,25,25,25,25,25,25,25,25,25,25,26,26,26,26,26,26,26,27,27,27,27,27,27,27,27,27,28,28,28,28,28,28,29,29,29,29,29,29,29,29,29,30,30,30,30,30,30,30,30,31,31,31,31,31,31,31,32,32,32,32,32,32,33,33,33,33,33,33,34,34,34,34,34,35,35,35,35,36,36,36,36,37,37,37,38,38,39,39,40];
unsucc = [3,4,6,10,14,16,17,21,4,5,6,7,8,9,10,11,12,13,14,15,16,17,18,19,22,24,25,26,27,28,29,31,5,7,8,9,11,12,13,15,20,6,8,9,10,11,12,13,14,15,16,17,18,19,21,22,26,27,28,29,30,38,7,8,9,10,11,12,13,15,17,20,21,22,23,29,8,9,10,11,12,13,14,15,16,17,18,19,21,22,24,25,26,27,28,29,30,31,35,38,39,10,11,13,14,16,17,20,21,24,28,38,10,11,12,13,14,15,16,17,18,19,20,21,24,25,26,27,28,30,31,32,34,38,39,11,12,13,14,15,16,17,20,21,23,24,25,12,14,15,16,17,18,19,21,22,26,29,32,13,14,16,17,18,19,20,21,22,23,24,28,30,32,33,34,38,14,15,16,17,18,19,21,22,24,25,26,27,29,31,32,15,17,20,21,22,23,29,16,17,18,19,20,21,22,23,24,28,30,32,33,34,38,17,20,21,22,23,24,29,18,19,20,22,24,25,26,27,28,30,31,20,21,22,23,24,25,28,29,38,20,21,22,23,24,25,26,27,28,29,33,37,38,39,41,21,22,24,25,26,27,28,29,30,31,32,35,38,39,22,23,24,25,26,27,28,29,30,31,33,35,37,23,24,25,26,27,28,30,31,32,34,38,39,24,25,26,27,28,29,30,31,32,34,35,36,38,39,26,27,28,29,30,32,33,34,38,39,26,27,28,29,30,32,33,34,37,38,39,41,28,29,30,32,33,34,38,28,29,30,32,33,34,37,38,39,29,31,32,33,37,41,30,31,32,33,34,37,38,39,41,31,32,33,34,37,38,39,41,32,33,34,37,38,39,41,33,35,37,38,39,41,34,35,36,38,39,40,35,37,38,39,41,37,38,39,41,37,38,39,41,38,39,40,40,41,40,41,41];

USEFUL_RES = [{},
	{1,2,3,4,5,6,7,8,9,10,12,13,14,15,16,17,18,19,20,21,22,23,24,25,26,27,28,29,30,31,32,33,35,36,37,38},
	{1,2,4,5,6,7,8,9,10,11,12,14,15,16,18,19,20,22,23,24,25,26,29,30,33,34,35,37,38},
	{1,2,3,4,5,6,7,8,9,10,12,13,14,15,16,17,18,19,20,21,22,23,24,25,26,27,28,29,30,31,32,33,35,36,37,38},
	{1,2,3,4,5,6,7,8,9,10,11,12,13,14,15,16,17,18,19,20,21,22,24,26,27,28,29,30,31,32,33,34,35,36,37,38},
	{1,2,4,5,6,7,8,9,10,11,12,14,15,16,18,19,20,22,23,24,25,26,29,30,33,34,35,37,38},
	{1,2,3,4,5,6,7,8,9,10,12,13,14,15,16,17,18,19,20,21,22,23,24,25,26,27,28,29,30,31,32,33,35,36,37,38},
	{1,2,3,4,5,6,7,8,9,10,11,12,13,16,17,18,19,20,21,23,24,25,26,27,28,29,30,31,32,33,34,35,36,38},
	{1,2,4,5,6,7,8,9,10,11,12,14,15,16,18,19,20,22,23,24,25,26,29,30,33,34,35,37,38},
	{1,2,3,4,5,6,7,8,9,10,12,13,14,15,16,17,18,19,20,21,22,23,24,25,26,27,28,29,30,31,32,33,35,36,37,38},
	{1,2,3,4,5,6,7,8,9,10,12,13,14,15,16,17,18,19,20,21,22,23,24,25,26,27,28,29,30,31,32,33,35,36,37,38},
	{1,2,3,4,5,6,7,8,9,10,11,12,13,16,17,18,19,20,21,23,24,25,26,27,28,29,30,31,32,33,34,35,36,38},
	{1,2,3,4,5,6,7,8,9,10,11,12,13,14,15,16,17,18,19,20,21,22,24,26,27,28,29,30,31,32,33,34,35,36,37,38},
	{1,2,3,4,5,6,7,8,9,10,12,13,14,15,16,17,18,19,20,21,22,23,24,25,26,27,28,29,30,31,32,33,35,36,37,38},
	{1,2,3,4,5,6,7,8,9,10,11,12,13,16,17,18,19,20,21,23,24,25,26,27,28,29,30,31,32,33,34,35,36,38},
	{1,2,3,4,5,6,7,8,9,10,12,13,14,15,16,17,18,19,20,21,22,23,24,25,26,27,28,29,30,31,32,33,35,36,37,38},
	{1,2,4,5,6,7,8,9,10,11,12,14,15,16,18,19,20,22,23,24,25,26,29,30,33,34,35,37,38},
	{1,2,4,5,6,7,8,9,10,11,12,14,15,16,18,19,20,22,23,24,25,26,29,30,33,34,35,37,38},
	{1,2,3,4,5,6,7,8,9,10,12,13,14,15,16,17,18,19,20,21,22,23,24,25,26,27,28,29,30,31,32,33,35,36,37,38},
	{1,2,3,4,5,6,7,8,9,10,11,12,13,16,17,18,19,20,21,23,24,25,26,27,28,29,30,31,32,33,34,35,36,38},
	{1,2,3,4,5,6,7,8,9,10,11,12,13,16,17,18,19,20,21,23,24,25,26,27,28,29,30,31,32,33,34,35,36,38},
	{1,2,4,5,6,7,8,9,10,11,12,14,15,16,18,19,20,22,23,24,25,26,29,30,33,34,35,37,38},
	{1,2,3,4,5,6,7,8,9,10,11,12,13,14,15,16,17,18,19,20,21,22,24,26,27,28,29,30,31,32,33,34,35,36,37,38},
	{1,2,3,4,5,6,7,8,9,10,11,12,13,14,15,16,17,18,19,20,21,22,24,26,27,28,29,30,31,32,33,34,35,36,37,38},
	{1,2,4,5,6,7,8,9,10,11,12,14,15,16,18,19,20,22,23,24,25,26,29,30,33,34,35,37,38},
	{1,2,3,4,5,6,7,8,9,10,11,12,13,16,17,18,19,20,21,23,24,25,26,27,28,29,30,31,32,33,34,35,36,38},
	{1,2,3,4,5,6,7,8,9,10,11,12,13,14,15,16,17,18,19,20,21,22,24,26,27,28,29,30,31,32,33,34,35,36,37,38},
	{1,2,3,4,5,6,7,8,9,10,11,12,13,14,15,16,17,18,19,20,21,22,24,26,27,28,29,30,31,32,33,34,35,36,37,38},
	{1,2,3,4,5,6,7,8,9,10,12,13,14,15,16,17,18,19,20,21,22,23,24,25,26,27,28,29,30,31,32,33,35,36,37,38},
	{1,2,4,5,6,7,8,9,10,11,12,14,15,16,18,19,20,22,23,24,25,26,29,30,33,34,35,37,38},
	{1,2,3,4,5,6,7,8,9,10,11,12,13,14,15,16,17,18,19,20,21,22,24,26,27,28,29,30,31,32,33,34,35,36,37,38},
	{1,2,3,4,5,6,7,8,9,10,12,13,14,15,16,17,18,19,20,21,22,23,24,25,26,27,28,29,30,31,32,33,35,36,37,38},
	{1,2,4,5,6,7,8,9,10,11,12,14,15,16,18,19,20,22,23,24,25,26,29,30,33,34,35,37,38},
	{1,2,4,5,6,7,8,9,10,11,12,14,15,16,18,19,20,22,23,24,25,26,29,30,33,34,35,37,38},
	{1,2,3,4,5,6,7,8,9,10,11,12,13,14,15,16,17,18,19,20,21,22,24,26,27,28,29,30,31,32,33,34,35,36,37,38},
	{1,2,3,4,5,6,7,8,9,10,12,13,14,15,16,17,18,19,20,21,22,23,24,25,26,27,28,29,30,31,32,33,35,36,37,38},
	{1,2,4,5,6,7,8,9,10,11,12,14,15,16,18,19,20,22,23,24,25,26,29,30,33,34,35,37,38},
	{1,2,3,4,5,6,7,8,9,10,11,12,13,14,15,16,17,18,19,20,21,22,24,26,27,28,29,30,31,32,33,34,35,36,37,38},
	{1,2,3,4,5,6,7,8,9,10,11,12,13,14,15,16,17,18,19,20,21,22,24,26,27,28,29,30,31,32,33,34,35,36,37,38},
	{1,2,3,4,5,6,7,8,9,10,11,12,13,16,17,18,19,20,21,23,24,25,26,27,28,29,30,31,32,33,34,35,36,38},
	{1,2,4,5,6,7,8,9,10,11,12,14,15,16,18,19,20,22,23,24,25,26,29,30,33,34,35,37,38},
	{}];

POTENTIAL_ACT = [{2,3,4,5,6,7,8,9,10,11,12,13,14,15,16,17,18,19,20,21,22,23,24,25,26,27,28,29,30,31,32,33,34,35,36,37,38,39,40,41},
	{2,3,4,5,6,7,8,9,10,11,12,13,14,15,16,17,18,19,20,21,22,23,24,25,26,27,28,29,30,31,32,33,34,35,36,37,38,39,40,41},
	{2,4,5,7,8,10,11,12,13,14,15,16,19,20,21,23,24,26,27,28,29,31,32,35,36,38,39,40},
	{2,3,4,5,6,7,8,9,10,11,12,13,14,15,16,17,18,19,20,21,22,23,24,25,26,27,28,29,30,31,32,33,34,35,36,37,38,39,40,41},
	{2,3,4,5,6,7,8,9,10,11,12,13,14,15,16,17,18,19,20,21,22,23,24,25,26,27,28,29,30,31,32,33,34,35,36,37,38,39,40,41},
	{2,3,4,5,6,7,8,9,10,11,12,13,14,15,16,17,18,19,20,21,22,23,24,25,26,27,28,29,30,31,32,33,34,35,36,37,38,39,40,41},
	{2,3,4,5,6,7,8,9,10,11,12,13,14,15,16,17,18,19,20,21,22,23,24,25,26,27,28,29,30,31,32,33,34,35,36,37,38,39,40,41},
	{2,3,4,5,6,7,8,9,10,11,12,13,14,15,16,17,18,19,20,21,22,23,24,25,26,27,28,29,30,31,32,33,34,35,36,37,38,39,40,41},
	{2,3,4,5,6,7,8,9,10,11,12,13,14,15,16,17,18,19,20,21,22,23,24,25,26,27,28,29,30,31,32,33,34,35,36,37,38,39,40,41},
	{2,3,4,5,6,7,8,9,10,11,12,13,14,15,16,17,18,19,20,21,22,23,24,25,26,27,28,29,30,31,32,33,34,35,36,37,38,39,40,41},
	{3,5,6,8,9,12,13,15,17,18,20,21,22,23,24,25,26,27,28,30,31,33,34,35,37,38,39,40,41},
	{2,3,4,5,6,7,8,9,10,11,12,13,14,15,16,17,18,19,20,21,22,23,24,25,26,27,28,29,30,31,32,33,34,35,36,37,38,39,40,41},
	{2,4,5,7,8,10,11,12,13,14,15,16,19,20,21,23,24,26,27,28,29,31,32,35,36,38,39,40},
	{2,3,4,5,6,7,9,10,11,13,14,16,17,18,19,22,23,24,25,27,28,29,30,31,32,33,34,35,36,37,38,39,41},
	{2,3,4,5,6,7,9,10,11,13,14,16,17,18,19,22,23,24,25,27,28,29,30,31,32,33,34,35,36,37,38,39,41},
	{2,3,4,5,6,7,8,9,10,11,12,13,14,15,16,17,18,19,20,21,22,23,24,25,26,27,28,29,30,31,32,33,34,35,36,37,38,39,40,41},
	{2,4,5,7,8,10,11,12,13,14,15,16,19,20,21,23,24,26,27,28,29,31,32,35,36,38,39,40},
	{2,3,4,5,6,7,8,9,10,11,12,13,14,15,16,17,18,19,20,21,22,23,24,25,26,27,28,29,30,31,32,33,34,35,36,37,38,39,40,41},
	{2,3,4,5,6,7,8,9,10,11,12,13,14,15,16,17,18,19,20,21,22,23,24,25,26,27,28,29,30,31,32,33,34,35,36,37,38,39,40,41},
	{2,3,4,5,6,7,8,9,10,11,12,13,14,15,16,17,18,19,20,21,22,23,24,25,26,27,28,29,30,31,32,33,34,35,36,37,38,39,40,41},
	{2,4,5,7,8,10,11,12,13,14,15,16,19,20,21,23,24,26,27,28,29,31,32,35,36,38,39,40},
	{2,3,4,5,6,7,9,10,11,13,14,16,17,18,19,22,23,24,25,27,28,29,30,31,32,33,34,35,36,37,38,39,41},
	{2,3,4,6,7,8,9,10,11,12,14,15,16,17,18,19,20,21,22,25,26,29,30,32,33,34,36,37,40,41},
	{2,3,4,5,6,7,8,9,10,11,12,13,14,15,16,17,18,19,20,21,22,23,24,25,26,27,28,29,30,31,32,33,34,35,36,37,38,39,40,41},
	{2,3,4,6,7,8,9,10,11,12,14,15,16,17,18,19,20,21,22,25,26,29,30,32,33,34,36,37,40,41},
	{2,3,4,5,6,7,8,9,10,11,12,13,14,15,16,17,18,19,20,21,22,23,24,25,26,27,28,29,30,31,32,33,34,35,36,37,38,39,40,41},
	{2,4,5,7,8,10,11,12,13,14,15,16,19,20,21,23,24,26,27,28,29,31,32,35,36,38,39,40},
	{2,4,5,7,8,10,11,12,13,14,15,16,19,20,21,23,24,26,27,28,29,31,32,35,36,38,39,40},
	{2,3,4,5,6,7,8,9,10,11,12,13,14,15,16,17,18,19,20,21,22,23,24,25,26,27,28,29,30,31,32,33,34,35,36,37,38,39,40,41},
	{2,3,4,5,6,7,8,9,10,11,12,13,14,15,16,17,18,19,20,21,22,23,24,25,26,27,28,29,30,31,32,33,34,35,36,37,38,39,40,41},
	{2,4,5,7,8,10,11,12,13,14,15,16,19,20,21,23,24,26,27,28,29,31,32,35,36,38,39,40},
	{2,4,5,7,8,10,11,12,13,14,15,16,19,20,21,23,24,26,27,28,29,31,32,35,36,38,39,40},
	{2,3,4,5,6,7,8,9,10,11,12,13,14,15,16,17,18,19,20,21,22,23,24,25,26,27,28,29,30,31,32,33,34,35,36,37,38,39,40,41},
	{3,5,6,8,9,12,13,15,17,18,20,21,22,23,24,25,26,27,28,30,31,33,34,35,37,38,39,40,41},
	{2,3,4,5,6,7,8,9,10,11,12,13,14,15,16,17,18,19,20,21,22,23,24,25,26,27,28,29,30,31,32,33,34,35,36,37,38,39,40,41},
	{2,4,5,7,8,10,11,12,13,14,15,16,19,20,21,23,24,26,27,28,29,31,32,35,36,38,39,40},
	{2,3,4,5,6,7,9,10,11,13,14,16,17,18,19,22,23,24,25,27,28,29,30,31,32,33,34,35,36,37,38,39,41},
	{2,3,4,5,6,7,8,9,10,11,12,13,14,15,16,17,18,19,20,21,22,23,24,25,26,27,28,29,30,31,32,33,34,35,36,37,38,39,40,41}];
